5
1 4 116
2 159 192
3 79 168
4 107 81
5 198 94
6 121 7
7 83 100
8 84 83
9 47 174
10 104 42
11 57 65
12 29 155
13 152 165
14 146 110
15 124 36
16 76 138
17 48 190
18 88 43
19 108 198
20 49 170
21 176 22
22 112 180
23 60 102
24 187 115
25 120 197
26 80 93
27 192 55
28 38 153
29 144 145
30 149 44
31 21 172
32 22 89
33 194 182
34 10 16
35 14 143
36 132 199
37 11 121
38 128 183
39 123 20
40 56 123
41 66 140
42 189 4
43 138 1
44 55 73
45 59 82
46 137 18
47 114 99
48 52 166
49 142 160
50 126 76